language ESSENCE' 1.0

letting n_courses be 135
letting n_periods be 26
letting prerequisite_RelationAsSet_Explicit_1 be
        [1, 1, 1, 2, 2, 2, 2, 3, 3, 3, 3, 3, 4, 4, 4, 4, 5, 5, 5, 5, 5, 6, 6, 6, 6, 6, 6, 7, 7, 7, 7, 7, 7, 7, 8, 8, 8,
         8, 9, 9, 9, 9, 10, 10, 10, 10, 11, 11, 12, 12, 12, 12, 13, 13, 13, 13, 13, 13, 14, 14, 14, 14, 15, 15, 15, 15,
         15, 16, 16, 17, 17, 17, 17, 17, 17, 17, 18, 18, 18, 18, 19, 19, 19, 19, 20, 20, 20, 20, 20, 20, 20, 20, 21, 21,
         21, 21, 22, 22, 22, 22, 22, 23, 23, 23, 23, 23, 23, 23, 24, 24, 24, 25, 25, 25, 25, 25, 26, 26, 26, 26, 26, 26,
         26, 26, 26, 27, 27, 27, 27, 27, 27, 27, 28, 28, 28, 28, 28, 28, 28, 28, 28, 29, 29, 29, 29, 29, 29, 29, 30, 30,
         30, 30, 31, 32, 32, 32, 32, 33, 33, 33, 33, 33, 34, 34, 34, 34, 34, 34, 35, 35, 35, 35, 36, 36, 36, 36, 36, 36,
         36, 37, 37, 37, 37, 37, 38, 38, 38, 38, 39, 39, 39, 39, 39, 39, 39, 40, 40, 40, 40, 40, 41, 41, 41, 41, 42, 42,
         42, 42, 42, 42, 42, 42, 43, 43, 43, 43, 44, 44, 44, 44, 44, 45, 45, 45, 45, 45, 45, 45, 46, 46, 46, 46, 46, 46,
         46, 46, 46, 46, 46, 47, 47, 47, 47, 47, 49, 49, 50, 50, 50, 50, 50, 51, 51, 51, 52, 52, 52, 52, 53, 53, 54, 55,
         55, 56, 56, 56, 56, 57, 57, 57, 57, 58, 58, 58, 58, 58, 60, 60, 60, 60, 60, 60, 61, 61, 62, 62, 63, 63, 63, 64,
         64, 64, 65, 65, 65, 65, 66, 66, 66, 66, 67, 67, 67, 67, 68, 69, 69, 69, 70, 70, 70, 71, 71, 72, 72, 73, 73, 73,
         73, 74, 74, 74, 74, 75, 75, 75, 75, 75, 76, 76, 76, 77, 77, 77, 80, 80, 80, 80, 80, 81, 81, 82, 82, 82, 83, 83,
         84, 84, 85, 85, 86, 86, 86, 87, 87, 87, 87, 87, 88, 88, 88, 88, 88, 88, 89, 89, 89, 90, 90, 90, 91, 92, 92, 92,
         93, 93, 93, 93, 93, 93, 95, 95, 95, 95, 96, 96, 97, 97, 97, 97, 97, 97, 98, 98, 99, 99, 99, 99, 100, 100, 100,
         100, 100, 101, 101, 101, 102, 102, 103, 103, 103, 103, 103, 103, 103, 104, 104, 104, 104, 104, 105, 106, 106,
         106, 107, 107, 108, 108, 108, 108, 108, 109, 109, 109, 110, 111, 111, 111, 111;
             int(1..439)]
letting prerequisite_RelationAsSet_Explicit_2 be
        [92, 96, 104, 65, 68, 71, 83, 49, 57, 71, 77, 99, 49, 75, 84, 88, 70, 81, 85, 109, 111, 56, 60, 66, 72, 89, 93,
         55, 66, 67, 69, 76, 104, 109, 50, 52, 57, 65, 89, 94, 95, 105, 58, 77, 84, 93, 72, 81, 62, 75, 80, 107, 52, 58,
         68, 73, 104, 105, 94, 100, 105, 110, 54, 62, 69, 87, 105, 54, 79, 60, 65, 74, 90, 91, 94, 109, 53, 59, 61, 73,
         62, 78, 84, 93, 61, 66, 67, 87, 94, 98, 103, 107, 62, 106, 107, 108, 73, 92, 95, 102, 111, 62, 71, 77, 80, 92,
         99, 109, 77, 83, 97, 54, 64, 65, 108, 111, 60, 63, 75, 83, 90, 93, 95, 103, 106, 63, 65, 68, 80, 86, 99, 105,
         51, 59, 75, 83, 87, 100, 106, 108, 109, 52, 56, 57, 79, 80, 85, 91, 66, 74, 96, 103, 99, 55, 57, 90, 102, 51,
         56, 68, 73, 86, 49, 66, 81, 95, 98, 100, 75, 86, 87, 111, 67, 81, 84, 88, 100, 107, 111, 57, 81, 88, 99, 107,
         54, 60, 99, 101, 50, 54, 63, 73, 83, 98, 108, 63, 75, 76, 85, 86, 76, 78, 86, 101, 49, 51, 65, 67, 82, 84, 106,
         109, 61, 64, 80, 82, 72, 82, 84, 95, 98, 50, 58, 78, 82, 83, 94, 100, 58, 69, 72, 76, 81, 87, 96, 99, 100, 103,
         110, 56, 63, 83, 85, 109, 120, 134, 117, 125, 128, 129, 132, 113, 124, 133, 118, 119, 130, 135, 120, 125, 135,
         113, 118, 116, 121, 122, 132, 117, 121, 124, 131, 112, 114, 115, 124, 133, 114, 115, 120, 121, 133, 135, 124,
         134, 112, 116, 114, 117, 125, 113, 122, 131, 112, 122, 126, 132, 118, 123, 126, 135, 113, 120, 126, 135, 116,
         125, 128, 132, 118, 121, 124, 121, 122, 114, 116, 122, 125, 134, 135, 119, 120, 122, 129, 125, 129, 131, 134,
         135, 124, 127, 131, 114, 116, 133, 113, 116, 119, 125, 131, 117, 130, 112, 121, 122, 115, 124, 122, 133, 124,
         134, 116, 125, 127, 112, 119, 127, 131, 133, 112, 113, 120, 121, 129, 131, 113, 126, 130, 114, 132, 133, 119,
         114, 125, 130, 114, 115, 117, 122, 124, 133, 120, 125, 126, 132, 112, 132, 113, 117, 121, 126, 130, 132, 116,
         128, 112, 123, 128, 130, 116, 124, 125, 127, 130, 118, 124, 128, 127, 132, 112, 117, 119, 128, 129, 134, 135,
         114, 120, 128, 132, 133, 113, 123, 126, 127, 124, 127, 116, 117, 119, 128, 132, 121, 128, 130, 129, 112, 123,
         124, 131;
             int(1..439)]
letting course_load_Function1D be
        [7, 3, 8, 6, 2, 7, 5, 6, 8, 5, 6, 7, 4, 5, 3, 6, 4, 5, 2, 2, 7, 7, 3, 7, 2, 2, 8, 8, 7, 3, 3, 7, 6, 5, 7, 2, 2,
         5, 3, 5, 7, 5, 5, 7, 8, 8, 6, 2, 5, 5, 5, 3, 3, 3, 5, 7, 7, 6, 3, 6, 5, 6, 4, 7, 4, 2, 6, 8, 7, 7, 2, 4, 8, 3,
         3, 4, 5, 3, 3, 7, 4, 6, 2, 7, 4, 2, 6, 2, 2, 7, 3, 4, 3, 3, 7, 2, 7, 5, 7, 3, 2, 6, 5, 5, 8, 2, 6, 6, 2, 3, 6,
         4, 7, 6, 7, 3, 8, 7, 6, 2, 4, 3, 3, 7, 7, 8, 2, 7, 6, 7, 7, 2, 2, 7, 7;
             int(1..135)]
letting load_per_period_ub be 25
letting load_per_period_lb be 9
letting courses_per_period_ub be 9
letting courses_per_period_lb be 5
letting fin1 be 439
letting fin2 be 135
letting fin3 be 8
